# Objective value = 9.6200700000000052e+03
I_0_0 1549
I_0_1 2.1880000000000005e+03
I_0_2 1.9110000000000005e+03
I_0_3 1.7279999999999984e+03
I_0_4 1.9400000000000018e+03
I_0_5 1.7209999999999993e+03
I_0_6 2.3599999999999986e+03
I_1_0 26
I_1_1 13
I_1_2 2.5999999999999208e+01
I_1_3 13.0000000000004
I_1_4 3.9651182545065519e-13
I_1_5 26
I_1_6 1.2999999999999991e+01
I_2_0 78
I_2_1 39
I_2_2 0
I_2_3 78
I_2_4 3.9000000000000014e+01
I_2_5 77.9999999999994
I_2_6 3.8999999999999964e+01
I_3_0 39
I_3_1 -5.4123372450476381e-16
I_3_2 39
I_3_3 3.9000000000000014e+01
I_3_4 -2.5979218776228663e-14
I_3_5 3.8999999999999993e+01
I_3_6 0
I_4_0 94
I_4_1 47
I_4_2 -1.4210854715202004e-13
I_4_3 9.4000000000000085e+01
I_4_4 4.7000000000000071e+01
I_4_5 9.4000000000000014e+01
I_4_6 4.6999999999999964e+01
I_5_0 55
I_5_1 0
I_5_2 55
I_5_3 55
I_5_4 0
I_5_5 55
I_5_6 0
I_6_0 154
I_6_1 77
I_6_2 1.5400000000000037e+02
I_6_3 7.6999999999999616e+01
I_6_4 1.5400000000000006e+02
I_6_5 7.6999999999999972e+01
I_6_6 -2.8421709430404007e-14
I_7_0 89
I_7_1 -3.0878077872387166e-15
I_7_2 89
I_7_3 -9.0142318560793283e-13
I_7_4 89
I_7_5 89
I_7_6 0
I_8_0 89
I_8_1 -1.2351231148954867e-15
I_8_2 89
I_8_3 89.0000000000006
I_8_4 -5.9285909514983359e-13
I_8_5 8.8999999999999986e+01
I_8_6 0
I_9_0 190
I_9_1 9.4999999999999972e+01
I_9_2 -6.2527760746888816e-13
I_9_3 1.9000000000000063e+02
I_9_4 1.8999999999999733e+02
I_9_5 9.5000000000000483e+01
I_9_6 3.3395508580724709e-13
I_10_0 96
I_10_1 1.3322676295501878e-15
I_10_2 96
I_10_3 96
I_10_4 0
I_10_5 96
I_10_6 0
q_1_0 0
q_1_1 2.5999999999999993e+01
q_1_2 1.1895354763519655e-12
q_1_3 0
q_1_4 3.8999999999999609e+01
q_1_5 0
q_2_0 0
q_2_1 0
q_2_2 117
q_2_3 0
q_2_4 77.9999999999994
q_2_5 5.9685589803848416e-13
q_3_0 -5.4123372450476381e-16
q_3_1 78
q_3_2 3.9000000000000014e+01
q_3_3 -4.0190073491430667e-14
q_3_4 7.8000000000000028e+01
q_3_5 7.1054273576010019e-15
q_4_0 0
q_4_1 -7.1054273576010019e-14
q_4_2 1.4100000000000023e+02
q_4_3 0
q_4_4 9.3999999999999943e+01
q_4_5 0
q_5_0 0
q_5_1 110
q_5_2 55
q_5_3 0
q_5_4 110
q_5_5 0
q_6_0 -1.0685896612017132e-15
q_6_1 1.5400000000000040e+02
q_6_2 -7.6825875096306864e-13
q_6_3 1.5400000000000043e+02
q_6_4 0
q_6_5 0
q_7_0 -3.0878077872387166e-15
q_7_1 178
q_7_2 -9.0142318560793283e-13
q_7_3 1.7800000000000091e+02
q_7_4 89
q_7_5 0
q_8_0 -1.2351231148954867e-15
q_8_1 178
q_8_2 89.0000000000006
q_8_3 -1.1897149931883177e-12
q_8_4 1.7800000000000057e+02
q_8_5 1.4210854715202004e-14
q_9_0 -2.7026991755718655e-14
q_9_1 -5.7376325912628090e-13
q_9_2 2.8500000000000125e+02
q_9_3 94.9999999999967
q_9_4 3.1263880373444408e-12
q_9_5 -5.6843418860808015e-14
q_10_0 1.3322676295501878e-15
q_10_1 192
q_10_2 96
q_10_3 0
q_10_4 192
q_10_5 0
y_0_0 -1.3877787807814457e-17
y_0_1 1
y_0_2 1
y_0_3 1
y_0_4 1
y_0_5 0
y_1_0 0
y_1_1 9.9999999999999956e-01
y_1_2 3.05606908898379e-14
y_1_3 0
y_1_4 1
y_1_5 0
y_2_0 0
y_2_1 0
y_2_2 1
y_2_3 0
y_2_4 1
y_2_5 0
y_3_0 -1.3877787807814457e-17
y_3_1 1
y_3_2 1.0000000000000004e+00
y_3_3 -6.6613381477509392e-16
y_3_4 9.9999999999999978e-01
y_3_5 0
y_4_0 0
y_4_1 -6.6613381477509392e-16
y_4_2 1.0000000000000004e+00
y_4_3 0
y_4_4 1
y_4_5 0
y_5_0 0
y_5_1 1
y_5_2 1
y_5_3 0
y_5_4 1
y_5_5 0
y_6_0 -1.3877787807814457e-17
y_6_1 1.0000000000000027e+00
y_6_2 -4.7989726690887989e-15
y_6_3 1
y_6_4 0
y_6_5 -2.2204460492503131e-16
y_7_0 -3.4694469519536142e-17
y_7_1 1
y_7_2 -1.0128350400089132e-14
y_7_3 1
y_7_4 1
y_7_5 0
y_8_0 -1.3877787807814457e-17
y_8_1 1
y_8_2 1.0000000000000067e+00
y_8_3 -6.6613381477509392e-15
y_8_4 9.9999999999999989e-01
y_8_5 0
y_9_0 -2.8449465006019636e-16
y_9_1 -3.1086244689504383e-15
y_9_2 1.0000000000000036e+00
y_9_3 0.999999999999997
y_9_4 4.7739590058881731e-15
y_9_5 0
y_10_0 1.3877787807814457e-17
y_10_1 1
y_10_2 1
y_10_3 0
y_10_4 1
y_10_5 0
x_0_1_0 0
x_0_1_1 0
x_0_1_2 3.05606908898379e-14
x_0_1_3 0
x_0_1_4 0
x_0_1_5 0
x_0_2_0 0
x_0_2_1 0
x_0_2_2 0
x_0_2_3 0
x_0_2_4 0
x_0_2_5 0
x_0_3_0 0
x_0_3_1 1.0000000000000002e+00
x_0_3_2 0
x_0_3_3 -1.3322676295501878e-15
x_0_3_4 0
x_0_3_5 0
x_0_4_0 0
x_0_4_1 0
x_0_4_2 0
x_0_4_3 5.0792703376600912e-15
x_0_4_4 0
x_0_4_5 0
x_0_5_0 0
x_0_5_1 1.0000000000000020e+00
x_0_5_2 -8.8817841970012523e-16
x_0_5_3 0
x_0_5_4 0
x_0_5_5 0
x_0_6_0 0
x_0_6_1 2.4424906541753444e-15
x_0_6_2 1.1102230246251565e-16
x_0_6_3 1.0000000000000075e+00
x_0_6_4 0
x_0_6_5 7.7715611723760958e-16
x_0_7_0 0
x_0_7_1 2.8865798640254070e-15
x_0_7_2 0
x_0_7_3 0
x_0_7_4 9.9999999999999445e-01
x_0_7_5 0
x_0_8_0 0
x_0_8_1 4.4408920985006262e-16
x_0_8_2 1.0000000000000131e+00
x_0_8_3 -7.8548278992229825e-15
x_0_8_4 9.9999999999999978e-01
x_0_8_5 1.1657341758564144e-15
x_0_9_0 -2.7755575615628914e-17
x_0_9_1 -2.9976021664879227e-15
x_0_9_2 1.0000000000000364e+00
x_0_9_3 9.9999999999999734e-01
x_0_9_4 4.7739590058881731e-15
x_0_9_5 2.2204460492503131e-16
x_0_10_0 0
x_0_10_1 0
x_0_10_2 0
x_0_10_3 0
x_0_10_4 -2.2204460492503131e-16
x_0_10_5 0
x_1_2_0 -6.0455247964900712e-14
x_1_2_1 0
x_1_2_2 0
x_1_2_3 4.7184478546569153e-15
x_1_2_4 1
x_1_2_5 0
x_1_3_0 0
x_1_3_1 0
x_1_3_2 0
x_1_3_3 0
x_1_3_4 0
x_1_3_5 0
x_1_4_0 0
x_1_4_1 0
x_1_4_2 0
x_1_4_3 0
x_1_4_4 0
x_1_4_5 0
x_1_5_0 0
x_1_5_1 9.9999999999999956e-01
x_1_5_2 0
x_1_5_3 0
x_1_5_4 0
x_1_5_5 0
x_1_6_0 0
x_1_6_1 0
x_1_6_2 0
x_1_6_3 0
x_1_6_4 0
x_1_6_5 0
x_1_7_0 0
x_1_7_1 0
x_1_7_2 0
x_1_7_3 0
x_1_7_4 0
x_1_7_5 0
x_1_8_0 0
x_1_8_1 0
x_1_8_2 0
x_1_8_3 0
x_1_8_4 0
x_1_8_5 0
x_1_9_0 0
x_1_9_1 0
x_1_9_2 0
x_1_9_3 0
x_1_9_4 0
x_1_9_5 0
x_1_10_0 -6.0233203359975681e-14
x_1_10_1 9.9999999999999956e-01
x_1_10_2 3.05606908898379e-14
x_1_10_3 -4.5241588253475129e-15
x_1_10_4 1
x_1_10_5 0
x_2_3_0 0
x_2_3_1 0
x_2_3_2 0
x_2_3_3 0
x_2_3_4 0
x_2_3_5 0
x_2_4_0 0
x_2_4_1 0
x_2_4_2 0
x_2_4_3 4.8849813083506888e-15
x_2_4_4 0
x_2_4_5 0
x_2_5_0 0
x_2_5_1 0
x_2_5_2 1
x_2_5_3 0
x_2_5_4 1
x_2_5_5 0
x_2_6_0 0
x_2_6_1 0
x_2_6_2 0
x_2_6_3 0
x_2_6_4 0
x_2_6_5 0
x_2_7_0 0
x_2_7_1 0
x_2_7_2 0
x_2_7_3 0
x_2_7_4 0
x_2_7_5 0
x_2_8_0 0
x_2_8_1 0
x_2_8_2 0
x_2_8_3 0
x_2_8_4 0
x_2_8_5 0
x_2_9_0 0
x_2_9_1 0
x_2_9_2 0
x_2_9_3 0
x_2_9_4 0
x_2_9_5 0
x_2_10_0 6.0233203359975681e-14
x_2_10_1 0
x_2_10_2 1
x_2_10_3 0
x_2_10_4 0
x_2_10_5 0
x_3_4_0 0
x_3_4_1 -2.2204460492503131e-16
x_3_4_2 1.0000000000000004e+00
x_3_4_3 0
x_3_4_4 1.0000000000000004e+00
x_3_4_5 0
x_3_5_0 0
x_3_5_1 0
x_3_5_2 0
x_3_5_3 0
x_3_5_4 0
x_3_5_5 0
x_3_6_0 0
x_3_6_1 0
x_3_6_2 0
x_3_6_3 0
x_3_6_4 0
x_3_6_5 0
x_3_7_0 0
x_3_7_1 0
x_3_7_2 0
x_3_7_3 0
x_3_7_4 0
x_3_7_5 0
x_3_8_0 -1.3877787807814457e-17
x_3_8_1 9.9999999999999989e-01
x_3_8_2 1.0000000000000002e+00
x_3_8_3 0
x_3_8_4 1.0000000000000002e+00
x_3_8_5 0
x_3_9_0 0
x_3_9_1 0
x_3_9_2 0
x_3_9_3 0
x_3_9_4 0
x_3_9_5 0
x_3_10_0 0
x_3_10_1 0
x_3_10_2 0
x_3_10_3 0
x_3_10_4 0
x_3_10_5 0
x_4_5_0 0
x_4_5_1 -6.6613381477509392e-16
x_4_5_2 1.0000000000000004e+00
x_4_5_3 0
x_4_5_4 1
x_4_5_5 0
x_4_6_0 0
x_4_6_1 0
x_4_6_2 0
x_4_6_3 0
x_4_6_4 0
x_4_6_5 0
x_4_7_0 0
x_4_7_1 0
x_4_7_2 0
x_4_7_3 0
x_4_7_4 0
x_4_7_5 0
x_4_8_0 0
x_4_8_1 0
x_4_8_2 0
x_4_8_3 0
x_4_8_4 0
x_4_8_5 0
x_4_9_0 0
x_4_9_1 0
x_4_9_2 0
x_4_9_3 0
x_4_9_4 0
x_4_9_5 0
x_4_10_0 0
x_4_10_1 0
x_4_10_2 0
x_4_10_3 0
x_4_10_4 0
x_4_10_5 0
x_5_6_0 0
x_5_6_1 0
x_5_6_2 0
x_5_6_3 0
x_5_6_4 0
x_5_6_5 0
x_5_7_0 0
x_5_7_1 0
x_5_7_2 0
x_5_7_3 0
x_5_7_4 0
x_5_7_5 0
x_5_8_0 0
x_5_8_1 0
x_5_8_2 0
x_5_8_3 0
x_5_8_4 0
x_5_8_5 0
x_5_9_0 0
x_5_9_1 0
x_5_9_2 0
x_5_9_3 0
x_5_9_4 0
x_5_9_5 0
x_5_10_0 0
x_5_10_1 -8.6042284408449632e-16
x_5_10_2 0
x_5_10_3 0
x_5_10_4 0
x_5_10_5 0
x_6_7_0 -1.3877787807814457e-17
x_6_7_1 1.0000000000000022e+00
x_6_7_2 0
x_6_7_3 1
x_6_7_4 0
x_6_7_5 0
x_6_8_0 0
x_6_8_1 9.9999999999999933e-01
x_6_8_2 0
x_6_8_3 -6.0229599085914742e-15
x_6_8_4 0
x_6_8_5 -1.4432899320127035e-15
x_6_9_0 0
x_6_9_1 0
x_6_9_2 0
x_6_9_3 0
x_6_9_4 0
x_6_9_5 0
x_6_10_0 0
x_6_10_1 0
x_6_10_2 0
x_6_10_3 0
x_6_10_4 0
x_6_10_5 0
x_7_8_0 0
x_7_8_1 0
x_7_8_2 0
x_7_8_3 0
x_7_8_4 0
x_7_8_5 0
x_7_9_0 -5.4123372450476381e-16
x_7_9_1 -3.1086244689504383e-15
x_7_9_2 0
x_7_9_3 9.9999999999999589e-01
x_7_9_4 5.5511151231257827e-15
x_7_9_5 0
x_7_10_0 1.3877787807814457e-17
x_7_10_1 1.0000000000000011e+00
x_7_10_2 0
x_7_10_3 4.6074255521944e-15
x_7_10_4 1.0000000000000002e+00
x_7_10_5 0
x_8_9_0 0
x_8_9_1 0
x_8_9_2 0
x_8_9_3 0
x_8_9_4 0
x_8_9_5 0
x_8_10_0 0
x_8_10_1 0
x_8_10_2 0
x_8_10_3 0
x_8_10_4 0
x_8_10_5 0
x_9_10_0 0
x_9_10_1 0
x_9_10_2 9.9999999999996947e-01
x_9_10_3 0
x_9_10_4 0
x_9_10_5 0
